GLPSOL--GLPK LP/MIP Solver 5.0
Parameter(s) specified in the command line:
 --lp ../modeles/3_229.lp --log 3_229.log
Reading problem data from '../modeles/3_229.lp'...
700 rows, 1380 columns, 4824 non-zeros
687 integer variables, all of which are binary
2089 lines were read
GLPK Integer Optimizer 5.0
700 rows, 1380 columns, 4824 non-zeros
687 integer variables, all of which are binary
Preprocessing...
678 constraint coefficient(s) were reduced
700 rows, 1377 columns, 4821 non-zeros
687 integer variables, all of which are binary
Scaling...
 A: min|aij| =  7.628e-05  max|aij| =  4.000e+00  ratio =  5.244e+04
GM: min|aij| =  6.608e-02  max|aij| =  1.513e+01  ratio =  2.290e+02
EQ: min|aij| =  4.367e-03  max|aij| =  1.000e+00  ratio =  2.290e+02
2N: min|aij| =  3.906e-03  max|aij| =  1.752e+00  ratio =  4.486e+02
Constructing initial basis...
Size of triangular part is 700
Solving LP relaxation...
GLPK Simplex Optimizer 5.0
700 rows, 1377 columns, 4821 non-zeros
      0: obj =   6.000000000e+00 inf =   1.450e+01 (7)
     44: obj =   4.998951182e-01 inf =   0.000e+00 (0)
*   171: obj =  -1.731854572e+00 inf =   1.388e-17 (0)
OPTIMAL LP SOLUTION FOUND
Integer optimization begins...
Long-step dual simplex will be used
+   171: mip =     not found yet >=              -inf        (1; 0)
+   427: >>>>>  -1.731854572e+00 >=  -1.731854572e+00 < 0.1% (256; 0)
+   427: mip =  -1.731854572e+00 >=     tree is empty   0.0% (0; 511)
INTEGER OPTIMAL SOLUTION FOUND
Time used:   0.3 secs
Memory used: 2.0 Mb (2147471 bytes)
